problem_generation/data/GISP/train/er_n=67_m=1373_p=0.60_SET2_setparam=100.00_alpha=0.50_504.lp
maximize
OBJ:100x0 + 100x1 + 100x2 + 100x3 + 100x4 + 100x5 + 100x6 + 100x7 + 100x8 + 100x9 + 100x10 + 100x11 + 100x12 + 100x13 + 100x14 + 100x15 + 100x16 + 100x17 + 100x18 + 100x19 + 100x20 + 100x21 + 100x22 + 100x23 + 100x24 + 100x25 + 100x26 + 100x27 + 100x28 + 100x29 + 100x30 + 100x31 + 100x32 + 100x33 + 100x34 + 100x35 + 100x36 + 100x37 + 100x38 + 100x39 + 100x40 + 100x41 + 100x42 + 100x43 + 100x44 + 100x45 + 100x46 + 100x47 + 100x48 + 100x49 + 100x50 + 100x51 + 100x52 + 100x53 + 100x54 + 100x55 + 100x56 + 100x57 + 100x58 + 100x59 + 100x60 + 100x61 + 100x62 + 100x63 + 100x64 + 100x65 + 100x66 - y15_30 - y26_30 - y26_39 - y0_5 - y29_50 - y48_63 - y6_57 - y40_59 - y10_27 - y33_38 - y25_34 - y3_6 - y10_54 - y3_15 - y2_59 - y36_48 - y47_48 - y28_53 - y9_49 - y17_62 - y6_34 - y21_32 - y40_45 - y21_41 - y29_54 - y6_61 - y29_63 - y40_63 - y21_59 - y10_22 - y10_31 - y10_40 - y25_38 - y10_49 - y10_58 - y51_59 - y32_55 - y13_51 - y43_64 - y35_60 - y16_56 - y55_65 - y17_48 - y28_48 - y36_61 - y9_44 - y17_57 - y28_57 - y5_64 - y6_29 - y9_62 - y21_27 - y48_53 - y21_36 - y29_49 - y40_49 - y6_56 - y2_13 - y62_64 - y33_37 - y25_33 - y51_54 - y3_14 - y22_27 - y13_46 - y16_51 - y1_62 - y24_64 - y35_64 - y7_11 - y5_41 - y17_43 - y47_56 - y9_39 - y17_52 - y9_57 - y9_66 - y40_44 - y10_12 - y2_17 - y31_53 - y10_30 - y20_62 - y25_28 - y54_64 - y12_58 - y23_58 - y32_36 - y51_58 - y13_41 - y3_18 - y1_57 - y35_59 - y17_20 - y28_29 - y36_42 - y9_25 - y17_38 - y28_38 - y9_34 - y17_47 - y5_54 - y6_19 - y50_53 - y6_28 - y21_26 - y8_65 - y19_65 - y30_65 - y39_52 - y20_48 - y31_48 - y62_63 - y12_44 - y23_53 - y4_49 - y24_27 - y3_4 - y32_40 - y51_53 - y24_36 - y32_49 - y16_41 - y35_54 - y13_63 - y24_63 - y35_63 - y5_22 - y49_65 - y5_40 - y9_47 - y50_57 - y42_53 - y30_60 - y42_62 - y0_56 - y10_11 - y11_65 - y39_47 - y2_7 - y31_43 - y23_39 - y20_52 - y4_44 - y13_22 - y1_29 - y4_62 - y13_40 - y24_40 - y16_36 - y24_49 - y5_8 - y35_58 - y46_55 - y17_28 - y46_64 - y57_64 - y38_60 - y49_60 - y5_35 - y7_63 - y27_59 - y42_57 - y20_29 - y12_25 - y20_47 - y4_30 - y31_47 - y20_56 - y12_52 - y1_15 - y13_17 - y23_52 - y31_65 - y24_26 - y4_57 - y34_58 - y16_49 - y9_10 - y17_23 - y57_59 - y15_53 - y38_55 - y49_64 - y7_58 - y18_58 - y8_32 - y8_41 - y30_41 - y27_54 - y42_43 - y42_52 - y0_46 - y20_24 - y11_55 - y20_33 - y12_29 - y4_25 - y23_38 - y20_51 - y4_34 - y1_10 - y23_56 - y53_57 - y4_52 - y16_17 - y34_53 - y24_30 - y16_26 - y22_60 - y1_37 - y34_62 - y45_62 - y16_35 - y5_7 - y5_16 - y9_14 - y38_59 - y7_53 - y15_66 - y26_66 - y8_27 - y27_40 - y8_36 - y30_36 - y0_32 - y11_41 - y19_54 - y42_56 - y60_64 - y0_59 - y12_24 - y23_24 - y41_60 - y4_20 - y4_29 - y33_65 - y13_16 - y1_23 - y24_25 - y37_44 - y45_57 - y56_57 - y1_32 - y3_51 - y37_53 - y16_30 - y34_66 - y3_60 - y14_60 - y37_62 - y26_34 - y46_49 - y15_43 - y38_54 - y49_54 - y8_13 - y38_63 - y8_22 - y27_35 - y0_27 - y11_27 - y63_65 - y27_53 - y0_36 - y4_6 - y12_19 - y52_55 - y20_32 - y4_15 - y33_51 - y52_64 - y44_60 - y2_63 - y1_18 - y45_52 - y53_65 - y34_61 - y45_61 - y37_57 - y15_29 - y26_29 - y15_38 - y26_38 - y7_34 - y26_47 - y7_52 - y27_30 - y0_13 - y18_61 - y19_26 - y48_62 - y27_39 - y29_58 - y8_35 - y0_31 - y21_63 - y41_50 - y44_46 - y25_51 - y34_38 - y34_47 - y22_63 - y56_65 - y7_20 - y26_33 - y15_42 - y7_38 - y18_38 - y18_47 - y8_12 - y18_56 - y29_53 - y8_30 - y0_26 - y6_60 - y11_26 - y11_35 - y25_37 - y4_14 - y33_50 - y25_46 - y10_57 - y33_59 - y10_66 - y3_27 - y22_40 - y34_42 - y37_38 - y34_51 - y3_45 - y37_47 - y22_58 - y7_15 - y28_65 - y18_42 - y8_16 - y0_12 - y29_48 - y19_25 - y21_44 - y6_55 - y11_30 - y10_34 - y25_32 - y4_9 - y33_45 - y41_58 - y25_41 - y10_52 - y10_61 - y33_63 - y51_62 - y25_59 - y14_22 - y34_37 - y22_53 - y3_49 - y14_49 - y55_59 - y7_19 - y18_19 - y17_51 - y28_51 - y7_28 - y18_28 - y47_64 - y59_66 - y8_11 - y29_43 - y21_39 - y6_50 - y11_16 - y29_52 - y40_52 - y48_65 - y6_59 - y29_61 - y41_44 - y25_27 - y10_38 - y10_47 - y33_49 - y10_56 - y3_17 - y14_17 - y22_30 - y2_61 - y22_39 - y14_44 - y16_63 - y7_14 - y17_46 - y18_23 - y36_59 - y28_55 - y9_51 - y6_27 - y9_60 - y0_2 - y48_51 - y21_34 - y29_47 - y6_54 - y6_63 - y10_33 - y2_29 - y2_47 - y2_56 - y24_53 - y43_66 - y1_60 - y13_62 - y35_62 - y16_58 - y17_32 - y36_45 - y9_37 - y17_50 - y28_50 - y5_57 - y28_59 - y58_60 - y21_29 - y29_51 - y10_28 - y62_66 - y2_24 - y24_39 - y14_25 - y17_18 - y13_66 - y16_62 - y28_36 - y36_49 - y9_32 - y47_49 - y28_45 - y36_58 - y28_63 - y6_26 - y58_64 - y9_59 - y50_60 - y29_37 - y42_65 - y10_14 - y2_19 - y12_51 - y12_60 - y24_34 - y32_56 - y43_56 - y24_52 - y16_48 - y5_29 - y17_31 - y5_38 - y3_56 - y28_40 - y17_49 - y6_12 - y58_59 - y42_51 - y21_28 - y61_64 - y8_58 - y11_63 - y39_45 - y20_41 - y10_18 - y20_59 - y4_42 - y31_59 - y54_61 - y4_51 - y23_64 - y13_29 - y4_60 - y51_55 - y1_36 - y35_38 - y32_51 - y16_34 - y16_52 - y46_53 - y65_66 - y9_13 - y38_58 - y5_51 - y6_25 - y58_63 - y50_59 - y27_66 - y8_62 - y19_62 - y20_27 - y0_58 - y30_62 - y39_40 - y31_36 - y39_49 - y12_41 - y23_41 - y20_54 - y23_50 - y20_63 - y4_46 - y31_63 - y12_59 - y1_22 - y4_55 - y16_20 - y1_31 - y1_40 - y24_42 - y1_49 - y5_10 - y17_21 - y46_57 - y17_30 - y38_62 - y18_65 - y6_20 - y8_39 - y27_52 - y19_48 - y30_48 - y42_59 - y20_22 - y0_53 - y12_18 - y30_66 - y23_27 - y31_40 - y4_23 - y39_53 - y23_36 - y31_58 - y4_41 - y12_54 - y4_50 - y1_26 - y4_59 - y45_60 - y16_33 - y15_46 - y57_61 - y9_21 - y5_32 - y38_66 - y7_60 - y8_25 - y18_60 - y27_47 - y8_52 - y27_65 - y30_61 - y20_26 - y60_62 - y23_40 - y1_3 - y23_49 - y13_14 - y34_46 - y4_54 - y16_19 - y45_55 - y1_30 - y14_58 - y37_60 - y26_41 - y9_16 - y15_50 - y38_52 - y7_46 - y18_46 - y15_59 - y49_52 - y7_64 - y8_29 - y19_29 - y11_25 - y8_38 - y30_38 - y8_47 - y19_47 - y8_56 - y11_52 - y23_26 - y44_58 - y23_35 - y4_40 - y34_41 - y37_46 - y16_23 - y34_59 - y14_53 - y22_66 - y37_64 - y15_27 - y18_32 - y15_45 - y38_56 - y8_15 - y27_28 - y0_11 - y18_59 - y8_24 - y27_37 - y0_20 - y29_65 - y40_65 - y19_42 - y30_42 - y0_38 - y30_51 - y52_57 - y4_17 - y44_62 - y25_58 - y2_65 - y1_20 - y3_39 - y14_39 - y22_52 - y37_59 - y7_18 - y3_66 - y7_27 - y37_49 - y15_40 - y26_40 - y59_65 - y18_36 - y26_49 - y18_45 - y27_32 - y11_24 - y21_56 - y0_33 - y21_65 - y33_39 - y41_52 - y10_46 - y41_61 - y4_21 - y10_55 - y33_57 - y44_57 - y44_66 - y2_60 - y3_34 - y14_43 - y56_58 - y37_54 - y15_17 - y18_22 - y15_35 - y18_40 - y7_49 - y40_46 - y30_32 - y29_64 - y63_66 - y41_56 - y25_39 - y10_50 - y41_65 - y2_46 - y52_65 - y14_20 - y34_35 - y34_44 - y14_38 - y22_51 - y3_47 - y14_56
 Subject to
C1: x0+x1 <=1 
C2: x0+x2-y0_2 <=1 
C3: x0+x5-y0_5 <=1 
C4: x0+x6 <=1 
C5: x0+x11-y0_11 <=1 
C6: x0+x12-y0_12 <=1 
C7: x0+x13-y0_13 <=1 
C8: x0+x14 <=1 
C9: x0+x16 <=1 
C10: x0+x17 <=1 
C11: x0+x18 <=1 
C12: x0+x20-y0_20 <=1 
C13: x0+x21 <=1 
C14: x0+x24 <=1 
C15: x0+x26-y0_26 <=1 
C16: x0+x27-y0_27 <=1 
C17: x0+x30 <=1 
C18: x0+x31-y0_31 <=1 
C19: x0+x32-y0_32 <=1 
C20: x0+x33-y0_33 <=1 
C21: x0+x35 <=1 
C22: x0+x36-y0_36 <=1 
C23: x0+x38-y0_38 <=1 
C24: x0+x40 <=1 
C25: x0+x43 <=1 
C26: x0+x46-y0_46 <=1 
C27: x0+x51 <=1 
C28: x0+x53-y0_53 <=1 
C29: x0+x54 <=1 
C30: x0+x56-y0_56 <=1 
C31: x0+x57 <=1 
C32: x0+x58-y0_58 <=1 
C33: x0+x59-y0_59 <=1 
C34: x0+x60 <=1 
C35: x0+x62 <=1 
C36: x0+x63 <=1 
C37: x0+x66 <=1 
C38: x1+x3-y1_3 <=1 
C39: x1+x4 <=1 
C40: x1+x7 <=1 
C41: x1+x8 <=1 
C42: x1+x10-y1_10 <=1 
C43: x1+x12 <=1 
C44: x1+x15-y1_15 <=1 
C45: x1+x18-y1_18 <=1 
C46: x1+x19 <=1 
C47: x1+x20-y1_20 <=1 
C48: x1+x22-y1_22 <=1 
C49: x1+x23-y1_23 <=1 
C50: x1+x25 <=1 
C51: x1+x26-y1_26 <=1 
C52: x1+x29-y1_29 <=1 
C53: x1+x30-y1_30 <=1 
C54: x1+x31-y1_31 <=1 
C55: x1+x32-y1_32 <=1 
C56: x1+x33 <=1 
C57: x1+x35 <=1 
C58: x1+x36-y1_36 <=1 
C59: x1+x37-y1_37 <=1 
C60: x1+x38 <=1 
C61: x1+x40-y1_40 <=1 
C62: x1+x41 <=1 
C63: x1+x42 <=1 
C64: x1+x49-y1_49 <=1 
C65: x1+x50 <=1 
C66: x1+x52 <=1 
C67: x1+x54 <=1 
C68: x1+x55 <=1 
C69: x1+x57-y1_57 <=1 
C70: x1+x60-y1_60 <=1 
C71: x1+x61 <=1 
C72: x1+x62-y1_62 <=1 
C73: x1+x64 <=1 
C74: x1+x66 <=1 
C75: x2+x3 <=1 
C76: x2+x4 <=1 
C77: x2+x6 <=1 
C78: x2+x7-y2_7 <=1 
C79: x2+x8 <=1 
C80: x2+x11 <=1 
C81: x2+x13-y2_13 <=1 
C82: x2+x16 <=1 
C83: x2+x17-y2_17 <=1 
C84: x2+x18 <=1 
C85: x2+x19-y2_19 <=1 
C86: x2+x20 <=1 
C87: x2+x21 <=1 
C88: x2+x22 <=1 
C89: x2+x23 <=1 
C90: x2+x24-y2_24 <=1 
C91: x2+x25 <=1 
C92: x2+x26 <=1 
C93: x2+x27 <=1 
C94: x2+x29-y2_29 <=1 
C95: x2+x30 <=1 
C96: x2+x31 <=1 
C97: x2+x33 <=1 
C98: x2+x35 <=1 
C99: x2+x36 <=1 
C100: x2+x38 <=1 
C101: x2+x40 <=1 
C102: x2+x43 <=1 
C103: x2+x44 <=1 
C104: x2+x45 <=1 
C105: x2+x46-y2_46 <=1 
C106: x2+x47-y2_47 <=1 
C107: x2+x51 <=1 
C108: x2+x52 <=1 
C109: x2+x53 <=1 
C110: x2+x55 <=1 
C111: x2+x56-y2_56 <=1 
C112: x2+x59-y2_59 <=1 
C113: x2+x60-y2_60 <=1 
C114: x2+x61-y2_61 <=1 
C115: x2+x63-y2_63 <=1 
C116: x2+x65-y2_65 <=1 
C117: x2+x66 <=1 
C118: x3+x4-y3_4 <=1 
C119: x3+x5 <=1 
C120: x3+x6-y3_6 <=1 
C121: x3+x7 <=1 
C122: x3+x10 <=1 
C123: x3+x14-y3_14 <=1 
C124: x3+x15-y3_15 <=1 
C125: x3+x16 <=1 
C126: x3+x17-y3_17 <=1 
C127: x3+x18-y3_18 <=1 
C128: x3+x23 <=1 
C129: x3+x25 <=1 
C130: x3+x27-y3_27 <=1 
C131: x3+x28 <=1 
C132: x3+x29 <=1 
C133: x3+x30 <=1 
C134: x3+x31 <=1 
C135: x3+x34-y3_34 <=1 
C136: x3+x38 <=1 
C137: x3+x39-y3_39 <=1 
C138: x3+x41 <=1 
C139: x3+x42 <=1 
C140: x3+x43 <=1 
C141: x3+x44 <=1 
C142: x3+x45-y3_45 <=1 
C143: x3+x46 <=1 
C144: x3+x47-y3_47 <=1 
C145: x3+x49-y3_49 <=1 
C146: x3+x50 <=1 
C147: x3+x51-y3_51 <=1 
C148: x3+x52 <=1 
C149: x3+x55 <=1 
C150: x3+x56-y3_56 <=1 
C151: x3+x57 <=1 
C152: x3+x58 <=1 
C153: x3+x59 <=1 
C154: x3+x60-y3_60 <=1 
C155: x3+x62 <=1 
C156: x3+x63 <=1 
C157: x3+x64 <=1 
C158: x3+x65 <=1 
C159: x3+x66-y3_66 <=1 
C160: x4+x5 <=1 
C161: x4+x6-y4_6 <=1 
C162: x4+x8 <=1 
C163: x4+x9-y4_9 <=1 
C164: x4+x12 <=1 
C165: x4+x14-y4_14 <=1 
C166: x4+x15-y4_15 <=1 
C167: x4+x17-y4_17 <=1 
C168: x4+x19 <=1 
C169: x4+x20-y4_20 <=1 
C170: x4+x21-y4_21 <=1 
C171: x4+x23-y4_23 <=1 
C172: x4+x25-y4_25 <=1 
C173: x4+x26 <=1 
C174: x4+x29-y4_29 <=1 
C175: x4+x30-y4_30 <=1 
C176: x4+x31 <=1 
C177: x4+x33 <=1 
C178: x4+x34-y4_34 <=1 
C179: x4+x36 <=1 
C180: x4+x39 <=1 
C181: x4+x40-y4_40 <=1 
C182: x4+x41-y4_41 <=1 
C183: x4+x42-y4_42 <=1 
C184: x4+x43 <=1 
C185: x4+x44-y4_44 <=1 
C186: x4+x45 <=1 
C187: x4+x46-y4_46 <=1 
C188: x4+x49-y4_49 <=1 
C189: x4+x50-y4_50 <=1 
C190: x4+x51-y4_51 <=1 
C191: x4+x52-y4_52 <=1 
C192: x4+x53 <=1 
C193: x4+x54-y4_54 <=1 
C194: x4+x55-y4_55 <=1 
C195: x4+x56 <=1 
C196: x4+x57-y4_57 <=1 
C197: x4+x58 <=1 
C198: x4+x59-y4_59 <=1 
C199: x4+x60-y4_60 <=1 
C200: x4+x61 <=1 
C201: x4+x62-y4_62 <=1 
C202: x4+x63 <=1 
C203: x4+x65 <=1 
C204: x5+x7-y5_7 <=1 
C205: x5+x8-y5_8 <=1 
C206: x5+x9 <=1 
C207: x5+x10-y5_10 <=1 
C208: x5+x11 <=1 
C209: x5+x14 <=1 
C210: x5+x15 <=1 
C211: x5+x16-y5_16 <=1 
C212: x5+x18 <=1 
C213: x5+x22-y5_22 <=1 
C214: x5+x26 <=1 
C215: x5+x27 <=1 
C216: x5+x28 <=1 
C217: x5+x29-y5_29 <=1 
C218: x5+x32-y5_32 <=1 
C219: x5+x35-y5_35 <=1 
C220: x5+x36 <=1 
C221: x5+x38-y5_38 <=1 
C222: x5+x40-y5_40 <=1 
C223: x5+x41-y5_41 <=1 
C224: x5+x42 <=1 
C225: x5+x43 <=1 
C226: x5+x44 <=1 
C227: x5+x46 <=1 
C228: x5+x47 <=1 
C229: x5+x48 <=1 
C230: x5+x50 <=1 
C231: x5+x51-y5_51 <=1 
C232: x5+x53 <=1 
C233: x5+x54-y5_54 <=1 
C234: x5+x57-y5_57 <=1 
C235: x5+x58 <=1 
C236: x5+x60 <=1 
C237: x5+x64-y5_64 <=1 
C238: x6+x7 <=1 
C239: x6+x8 <=1 
C240: x6+x10 <=1 
C241: x6+x11 <=1 
C242: x6+x12-y6_12 <=1 
C243: x6+x13 <=1 
C244: x6+x14 <=1 
C245: x6+x18 <=1 
C246: x6+x19-y6_19 <=1 
C247: x6+x20-y6_20 <=1 
C248: x6+x22 <=1 
C249: x6+x25-y6_25 <=1 
C250: x6+x26-y6_26 <=1 
C251: x6+x27-y6_27 <=1 
C252: x6+x28-y6_28 <=1 
C253: x6+x29-y6_29 <=1 
C254: x6+x32 <=1 
C255: x6+x34-y6_34 <=1 
C256: x6+x35 <=1 
C257: x6+x36 <=1 
C258: x6+x39 <=1 
C259: x6+x40 <=1 
C260: x6+x41 <=1 
C261: x6+x43 <=1 
C262: x6+x44 <=1 
C263: x6+x46 <=1 
C264: x6+x47 <=1 
C265: x6+x48 <=1 
C266: x6+x50-y6_50 <=1 
C267: x6+x51 <=1 
C268: x6+x53 <=1 
C269: x6+x54-y6_54 <=1 
C270: x6+x55-y6_55 <=1 
C271: x6+x56-y6_56 <=1 
C272: x6+x57-y6_57 <=1 
C273: x6+x58 <=1 
C274: x6+x59-y6_59 <=1 
C275: x6+x60-y6_60 <=1 
C276: x6+x61-y6_61 <=1 
C277: x6+x62 <=1 
C278: x6+x63-y6_63 <=1 
C279: x6+x64 <=1 
C280: x7+x8 <=1 
C281: x7+x9 <=1 
C282: x7+x11-y7_11 <=1 
C283: x7+x14-y7_14 <=1 
C284: x7+x15-y7_15 <=1 
C285: x7+x18-y7_18 <=1 
C286: x7+x19-y7_19 <=1 
C287: x7+x20-y7_20 <=1 
C288: x7+x22 <=1 
C289: x7+x24 <=1 
C290: x7+x26 <=1 
C291: x7+x27-y7_27 <=1 
C292: x7+x28-y7_28 <=1 
C293: x7+x34-y7_34 <=1 
C294: x7+x38-y7_38 <=1 
C295: x7+x39 <=1 
C296: x7+x40 <=1 
C297: x7+x41 <=1 
C298: x7+x45 <=1 
C299: x7+x46-y7_46 <=1 
C300: x7+x47 <=1 
C301: x7+x48 <=1 
C302: x7+x49-y7_49 <=1 
C303: x7+x52-y7_52 <=1 
C304: x7+x53-y7_53 <=1 
C305: x7+x54 <=1 
C306: x7+x56 <=1 
C307: x7+x58-y7_58 <=1 
C308: x7+x59 <=1 
C309: x7+x60-y7_60 <=1 
C310: x7+x63-y7_63 <=1 
C311: x7+x64-y7_64 <=1 
C312: x8+x11-y8_11 <=1 
C313: x8+x12-y8_12 <=1 
C314: x8+x13-y8_13 <=1 
C315: x8+x15-y8_15 <=1 
C316: x8+x16-y8_16 <=1 
C317: x8+x19 <=1 
C318: x8+x20 <=1 
C319: x8+x22-y8_22 <=1 
C320: x8+x23 <=1 
C321: x8+x24-y8_24 <=1 
C322: x8+x25-y8_25 <=1 
C323: x8+x26 <=1 
C324: x8+x27-y8_27 <=1 
C325: x8+x29-y8_29 <=1 
C326: x8+x30-y8_30 <=1 
C327: x8+x31 <=1 
C328: x8+x32-y8_32 <=1 
C329: x8+x33 <=1 
C330: x8+x34 <=1 
C331: x8+x35-y8_35 <=1 
C332: x8+x36-y8_36 <=1 
C333: x8+x38-y8_38 <=1 
C334: x8+x39-y8_39 <=1 
C335: x8+x41-y8_41 <=1 
C336: x8+x42 <=1 
C337: x8+x43 <=1 
C338: x8+x46 <=1 
C339: x8+x47-y8_47 <=1 
C340: x8+x52-y8_52 <=1 
C341: x8+x53 <=1 
C342: x8+x56-y8_56 <=1 
C343: x8+x57 <=1 
C344: x8+x58-y8_58 <=1 
C345: x8+x59 <=1 
C346: x8+x62-y8_62 <=1 
C347: x8+x63 <=1 
C348: x8+x64 <=1 
C349: x8+x65-y8_65 <=1 
C350: x9+x10-y9_10 <=1 
C351: x9+x13-y9_13 <=1 
C352: x9+x14-y9_14 <=1 
C353: x9+x16-y9_16 <=1 
C354: x9+x17 <=1 
C355: x9+x21-y9_21 <=1 
C356: x9+x22 <=1 
C357: x9+x23 <=1 
C358: x9+x25-y9_25 <=1 
C359: x9+x26 <=1 
C360: x9+x28 <=1 
C361: x9+x30 <=1 
C362: x9+x31 <=1 
C363: x9+x32-y9_32 <=1 
C364: x9+x33 <=1 
C365: x9+x34-y9_34 <=1 
C366: x9+x37-y9_37 <=1 
C367: x9+x38 <=1 
C368: x9+x39-y9_39 <=1 
C369: x9+x41 <=1 
C370: x9+x43 <=1 
C371: x9+x44-y9_44 <=1 
C372: x9+x47-y9_47 <=1 
C373: x9+x48 <=1 
C374: x9+x49-y9_49 <=1 
C375: x9+x50 <=1 
C376: x9+x51-y9_51 <=1 
C377: x9+x52 <=1 
C378: x9+x53 <=1 
C379: x9+x55 <=1 
C380: x9+x56 <=1 
C381: x9+x57-y9_57 <=1 
C382: x9+x58 <=1 
C383: x9+x59-y9_59 <=1 
C384: x9+x60-y9_60 <=1 
C385: x9+x61 <=1 
C386: x9+x62-y9_62 <=1 
C387: x9+x65 <=1 
C388: x9+x66-y9_66 <=1 
C389: x10+x11-y10_11 <=1 
C390: x10+x12-y10_12 <=1 
C391: x10+x14-y10_14 <=1 
C392: x10+x15 <=1 
C393: x10+x16 <=1 
C394: x10+x18-y10_18 <=1 
C395: x10+x19 <=1 
C396: x10+x22-y10_22 <=1 
C397: x10+x24 <=1 
C398: x10+x25 <=1 
C399: x10+x27-y10_27 <=1 
C400: x10+x28-y10_28 <=1 
C401: x10+x30-y10_30 <=1 
C402: x10+x31-y10_31 <=1 
C403: x10+x33-y10_33 <=1 
C404: x10+x34-y10_34 <=1 
C405: x10+x35 <=1 
C406: x10+x36 <=1 
C407: x10+x37 <=1 
C408: x10+x38-y10_38 <=1 
C409: x10+x39 <=1 
C410: x10+x40-y10_40 <=1 
C411: x10+x42 <=1 
C412: x10+x44 <=1 
C413: x10+x45 <=1 
C414: x10+x46-y10_46 <=1 
C415: x10+x47-y10_47 <=1 
C416: x10+x49-y10_49 <=1 
C417: x10+x50-y10_50 <=1 
C418: x10+x52-y10_52 <=1 
C419: x10+x54-y10_54 <=1 
C420: x10+x55-y10_55 <=1 
C421: x10+x56-y10_56 <=1 
C422: x10+x57-y10_57 <=1 
C423: x10+x58-y10_58 <=1 
C424: x10+x59 <=1 
C425: x10+x60 <=1 
C426: x10+x61-y10_61 <=1 
C427: x10+x63 <=1 
C428: x10+x66-y10_66 <=1 
C429: x11+x13 <=1 
C430: x11+x14 <=1 
C431: x11+x15 <=1 
C432: x11+x16-y11_16 <=1 
C433: x11+x21 <=1 
C434: x11+x24-y11_24 <=1 
C435: x11+x25-y11_25 <=1 
C436: x11+x26-y11_26 <=1 
C437: x11+x27-y11_27 <=1 
C438: x11+x28 <=1 
C439: x11+x29 <=1 
C440: x11+x30-y11_30 <=1 
C441: x11+x31 <=1 
C442: x11+x35-y11_35 <=1 
C443: x11+x38 <=1 
C444: x11+x41-y11_41 <=1 
C445: x11+x42 <=1 
C446: x11+x43 <=1 
C447: x11+x45 <=1 
C448: x11+x48 <=1 
C449: x11+x49 <=1 
C450: x11+x52-y11_52 <=1 
C451: x11+x53 <=1 
C452: x11+x55-y11_55 <=1 
C453: x11+x56 <=1 
C454: x11+x62 <=1 
C455: x11+x63-y11_63 <=1 
C456: x11+x64 <=1 
C457: x11+x65-y11_65 <=1 
C458: x11+x66 <=1 
C459: x12+x13 <=1 
C460: x12+x16 <=1 
C461: x12+x18-y12_18 <=1 
C462: x12+x19-y12_19 <=1 
C463: x12+x21 <=1 
C464: x12+x24-y12_24 <=1 
C465: x12+x25-y12_25 <=1 
C466: x12+x26 <=1 
C467: x12+x27 <=1 
C468: x12+x29-y12_29 <=1 
C469: x12+x30 <=1 
C470: x12+x33 <=1 
C471: x12+x34 <=1 
C472: x12+x41-y12_41 <=1 
C473: x12+x42 <=1 
C474: x12+x43 <=1 
C475: x12+x44-y12_44 <=1 
C476: x12+x45 <=1 
C477: x12+x46 <=1 
C478: x12+x47 <=1 
C479: x12+x48 <=1 
C480: x12+x50 <=1 
C481: x12+x51-y12_51 <=1 
C482: x12+x52-y12_52 <=1 
C483: x12+x54-y12_54 <=1 
C484: x12+x58-y12_58 <=1 
C485: x12+x59-y12_59 <=1 
C486: x12+x60-y12_60 <=1 
C487: x12+x61 <=1 
C488: x12+x63 <=1 
C489: x12+x65 <=1 
C490: x13+x14-y13_14 <=1 
C491: x13+x16-y13_16 <=1 
C492: x13+x17-y13_17 <=1 
C493: x13+x22-y13_22 <=1 
C494: x13+x23 <=1 
C495: x13+x24 <=1 
C496: x13+x27 <=1 
C497: x13+x28 <=1 
C498: x13+x29-y13_29 <=1 
C499: x13+x31 <=1 
C500: x13+x32 <=1 
C501: x13+x34 <=1 
C502: x13+x35 <=1 
C503: x13+x39 <=1 
C504: x13+x40-y13_40 <=1 
C505: x13+x41-y13_41 <=1 
C506: x13+x42 <=1 
C507: x13+x43 <=1 
C508: x13+x44 <=1 
C509: x13+x45 <=1 
C510: x13+x46-y13_46 <=1 
C511: x13+x49 <=1 
C512: x13+x51-y13_51 <=1 
C513: x13+x52 <=1 
C514: x13+x53 <=1 
C515: x13+x55 <=1 
C516: x13+x56 <=1 
C517: x13+x62-y13_62 <=1 
C518: x13+x63-y13_63 <=1 
C519: x13+x64 <=1 
C520: x13+x65 <=1 
C521: x13+x66-y13_66 <=1 
C522: x14+x15 <=1 
C523: x14+x16 <=1 
C524: x14+x17-y14_17 <=1 
C525: x14+x19 <=1 
C526: x14+x20-y14_20 <=1 
C527: x14+x22-y14_22 <=1 
C528: x14+x25-y14_25 <=1 
C529: x14+x26 <=1 
C530: x14+x27 <=1 
C531: x14+x28 <=1 
C532: x14+x29 <=1 
C533: x14+x32 <=1 
C534: x14+x34 <=1 
C535: x14+x35 <=1 
C536: x14+x38-y14_38 <=1 
C537: x14+x39-y14_39 <=1 
C538: x14+x41 <=1 
C539: x14+x43-y14_43 <=1 
C540: x14+x44-y14_44 <=1 
C541: x14+x45 <=1 
C542: x14+x47 <=1 
C543: x14+x48 <=1 
C544: x14+x49-y14_49 <=1 
C545: x14+x52 <=1 
C546: x14+x53-y14_53 <=1 
C547: x14+x54 <=1 
C548: x14+x56-y14_56 <=1 
C549: x14+x58-y14_58 <=1 
C550: x14+x60-y14_60 <=1 
C551: x14+x61 <=1 
C552: x14+x62 <=1 
C553: x14+x63 <=1 
C554: x15+x17-y15_17 <=1 
C555: x15+x21 <=1 
C556: x15+x24 <=1 
C557: x15+x25 <=1 
C558: x15+x27-y15_27 <=1 
C559: x15+x28 <=1 
C560: x15+x29-y15_29 <=1 
C561: x15+x30-y15_30 <=1 
C562: x15+x31 <=1 
C563: x15+x32 <=1 
C564: x15+x33 <=1 
C565: x15+x35-y15_35 <=1 
C566: x15+x36 <=1 
C567: x15+x38-y15_38 <=1 
C568: x15+x40-y15_40 <=1 
C569: x15+x41 <=1 
C570: x15+x42-y15_42 <=1 
C571: x15+x43-y15_43 <=1 
C572: x15+x44 <=1 
C573: x15+x45-y15_45 <=1 
C574: x15+x46-y15_46 <=1 
C575: x15+x49 <=1 
C576: x15+x50-y15_50 <=1 
C577: x15+x53-y15_53 <=1 
C578: x15+x55 <=1 
C579: x15+x58 <=1 
C580: x15+x59-y15_59 <=1 
C581: x15+x61 <=1 
C582: x15+x63 <=1 
C583: x15+x66-y15_66 <=1 
C584: x16+x17-y16_17 <=1 
C585: x16+x18 <=1 
C586: x16+x19-y16_19 <=1 
C587: x16+x20-y16_20 <=1 
C588: x16+x23-y16_23 <=1 
C589: x16+x24 <=1 
C590: x16+x25 <=1 
C591: x16+x26-y16_26 <=1 
C592: x16+x30-y16_30 <=1 
C593: x16+x31 <=1 
C594: x16+x32 <=1 
C595: x16+x33-y16_33 <=1 
C596: x16+x34-y16_34 <=1 
C597: x16+x35-y16_35 <=1 
C598: x16+x36-y16_36 <=1 
C599: x16+x38 <=1 
C600: x16+x39 <=1 
C601: x16+x41-y16_41 <=1 
C602: x16+x42 <=1 
C603: x16+x45 <=1 
C604: x16+x48-y16_48 <=1 
C605: x16+x49-y16_49 <=1 
C606: x16+x50 <=1 
C607: x16+x51-y16_51 <=1 
C608: x16+x52-y16_52 <=1 
C609: x16+x56-y16_56 <=1 
C610: x16+x57 <=1 
C611: x16+x58-y16_58 <=1 
C612: x16+x62-y16_62 <=1 
C613: x16+x63-y16_63 <=1 
C614: x17+x18-y17_18 <=1 
C615: x17+x19 <=1 
C616: x17+x20-y17_20 <=1 
C617: x17+x21-y17_21 <=1 
C618: x17+x23-y17_23 <=1 
C619: x17+x25 <=1 
C620: x17+x27 <=1 
C621: x17+x28-y17_28 <=1 
C622: x17+x29 <=1 
C623: x17+x30-y17_30 <=1 
C624: x17+x31-y17_31 <=1 
C625: x17+x32-y17_32 <=1 
C626: x17+x33 <=1 
C627: x17+x38-y17_38 <=1 
C628: x17+x39 <=1 
C629: x17+x42 <=1 
C630: x17+x43-y17_43 <=1 
C631: x17+x46-y17_46 <=1 
C632: x17+x47-y17_47 <=1 
C633: x17+x48-y17_48 <=1 
C634: x17+x49-y17_49 <=1 
C635: x17+x50-y17_50 <=1 
C636: x17+x51-y17_51 <=1 
C637: x17+x52-y17_52 <=1 
C638: x17+x53 <=1 
C639: x17+x54 <=1 
C640: x17+x55 <=1 
C641: x17+x57-y17_57 <=1 
C642: x17+x59 <=1 
C643: x17+x60 <=1 
C644: x17+x62-y17_62 <=1 
C645: x17+x64 <=1 
C646: x18+x19-y18_19 <=1 
C647: x18+x20 <=1 
C648: x18+x22-y18_22 <=1 
C649: x18+x23-y18_23 <=1 
C650: x18+x24 <=1 
C651: x18+x25 <=1 
C652: x18+x26 <=1 
C653: x18+x28-y18_28 <=1 
C654: x18+x29 <=1 
C655: x18+x30 <=1 
C656: x18+x32-y18_32 <=1 
C657: x18+x33 <=1 
C658: x18+x34 <=1 
C659: x18+x35 <=1 
C660: x18+x36-y18_36 <=1 
C661: x18+x38-y18_38 <=1 
C662: x18+x39 <=1 
C663: x18+x40-y18_40 <=1 
C664: x18+x42-y18_42 <=1 
C665: x18+x44 <=1 
C666: x18+x45-y18_45 <=1 
C667: x18+x46-y18_46 <=1 
C668: x18+x47-y18_47 <=1 
C669: x18+x48 <=1 
C670: x18+x49 <=1 
C671: x18+x52 <=1 
C672: x18+x56-y18_56 <=1 
C673: x18+x58-y18_58 <=1 
C674: x18+x59-y18_59 <=1 
C675: x18+x60-y18_60 <=1 
C676: x18+x61-y18_61 <=1 
C677: x18+x64 <=1 
C678: x18+x65-y18_65 <=1 
C679: x19+x20 <=1 
C680: x19+x22 <=1 
C681: x19+x24 <=1 
C682: x19+x25-y19_25 <=1 
C683: x19+x26-y19_26 <=1 
C684: x19+x27 <=1 
C685: x19+x28 <=1 
C686: x19+x29-y19_29 <=1 
C687: x19+x30 <=1 
C688: x19+x37 <=1 
C689: x19+x39 <=1 
C690: x19+x41 <=1 
C691: x19+x42-y19_42 <=1 
C692: x19+x44 <=1 
C693: x19+x45 <=1 
C694: x19+x47-y19_47 <=1 
C695: x19+x48-y19_48 <=1 
C696: x19+x52 <=1 
C697: x19+x53 <=1 
C698: x19+x54-y19_54 <=1 
C699: x19+x57 <=1 
C700: x19+x62-y19_62 <=1 
C701: x19+x63 <=1 
C702: x19+x64 <=1 
C703: x19+x65-y19_65 <=1 
C704: x20+x22-y20_22 <=1 
C705: x20+x24-y20_24 <=1 
C706: x20+x26-y20_26 <=1 
C707: x20+x27-y20_27 <=1 
C708: x20+x29-y20_29 <=1 
C709: x20+x32-y20_32 <=1 
C710: x20+x33-y20_33 <=1 
C711: x20+x34 <=1 
C712: x20+x35 <=1 
C713: x20+x40 <=1 
C714: x20+x41-y20_41 <=1 
C715: x20+x43 <=1 
C716: x20+x45 <=1 
C717: x20+x47-y20_47 <=1 
C718: x20+x48-y20_48 <=1 
C719: x20+x51-y20_51 <=1 
C720: x20+x52-y20_52 <=1 
C721: x20+x54-y20_54 <=1 
C722: x20+x55 <=1 
C723: x20+x56-y20_56 <=1 
C724: x20+x58 <=1 
C725: x20+x59-y20_59 <=1 
C726: x20+x62-y20_62 <=1 
C727: x20+x63-y20_63 <=1 
C728: x21+x23 <=1 
C729: x21+x24 <=1 
C730: x21+x26-y21_26 <=1 
C731: x21+x27-y21_27 <=1 
C732: x21+x28-y21_28 <=1 
C733: x21+x29-y21_29 <=1 
C734: x21+x31 <=1 
C735: x21+x32-y21_32 <=1 
C736: x21+x34-y21_34 <=1 
C737: x21+x36-y21_36 <=1 
C738: x21+x37 <=1 
C739: x21+x39-y21_39 <=1 
C740: x21+x41-y21_41 <=1 
C741: x21+x43 <=1 
C742: x21+x44-y21_44 <=1 
C743: x21+x49 <=1 
C744: x21+x53 <=1 
C745: x21+x55 <=1 
C746: x21+x56-y21_56 <=1 
C747: x21+x57 <=1 
C748: x21+x58 <=1 
C749: x21+x59-y21_59 <=1 
C750: x21+x60 <=1 
C751: x21+x62 <=1 
C752: x21+x63-y21_63 <=1 
C753: x21+x65-y21_65 <=1 
C754: x22+x23 <=1 
C755: x22+x24 <=1 
C756: x22+x25 <=1 
C757: x22+x27-y22_27 <=1 
C758: x22+x29 <=1 
C759: x22+x30-y22_30 <=1 
C760: x22+x32 <=1 
C761: x22+x34 <=1 
C762: x22+x36 <=1 
C763: x22+x37 <=1 
C764: x22+x39-y22_39 <=1 
C765: x22+x40-y22_40 <=1 
C766: x22+x41 <=1 
C767: x22+x43 <=1 
C768: x22+x44 <=1 
C769: x22+x45 <=1 
C770: x22+x46 <=1 
C771: x22+x50 <=1 
C772: x22+x51-y22_51 <=1 
C773: x22+x52-y22_52 <=1 
C774: x22+x53-y22_53 <=1 
C775: x22+x58-y22_58 <=1 
C776: x22+x59 <=1 
C777: x22+x60-y22_60 <=1 
C778: x22+x61 <=1 
C779: x22+x62 <=1 
C780: x22+x63-y22_63 <=1 
C781: x22+x66-y22_66 <=1 
C782: x23+x24-y23_24 <=1 
C783: x23+x25 <=1 
C784: x23+x26-y23_26 <=1 
C785: x23+x27-y23_27 <=1 
C786: x23+x28 <=1 
C787: x23+x29 <=1 
C788: x23+x30 <=1 
C789: x23+x31 <=1 
C790: x23+x32 <=1 
C791: x23+x34 <=1 
C792: x23+x35-y23_35 <=1 
C793: x23+x36-y23_36 <=1 
C794: x23+x38-y23_38 <=1 
C795: x23+x39-y23_39 <=1 
C796: x23+x40-y23_40 <=1 
C797: x23+x41-y23_41 <=1 
C798: x23+x43 <=1 
C799: x23+x44 <=1 
C800: x23+x46 <=1 
C801: x23+x48 <=1 
C802: x23+x49-y23_49 <=1 
C803: x23+x50-y23_50 <=1 
C804: x23+x51 <=1 
C805: x23+x52-y23_52 <=1 
C806: x23+x53-y23_53 <=1 
C807: x23+x56-y23_56 <=1 
C808: x23+x58-y23_58 <=1 
C809: x23+x59 <=1 
C810: x23+x63 <=1 
C811: x23+x64-y23_64 <=1 
C812: x23+x66 <=1 
C813: x24+x25-y24_25 <=1 
C814: x24+x26-y24_26 <=1 
C815: x24+x27-y24_27 <=1 
C816: x24+x28 <=1 
C817: x24+x30-y24_30 <=1 
C818: x24+x32 <=1 
C819: x24+x33 <=1 
C820: x24+x34-y24_34 <=1 
C821: x24+x36-y24_36 <=1 
C822: x24+x37 <=1 
C823: x24+x39-y24_39 <=1 
C824: x24+x40-y24_40 <=1 
C825: x24+x42-y24_42 <=1 
C826: x24+x45 <=1 
C827: x24+x47 <=1 
C828: x24+x49-y24_49 <=1 
C829: x24+x50 <=1 
C830: x24+x52-y24_52 <=1 
C831: x24+x53-y24_53 <=1 
C832: x24+x54 <=1 
C833: x24+x55 <=1 
C834: x24+x56 <=1 
C835: x24+x58 <=1 
C836: x24+x59 <=1 
C837: x24+x60 <=1 
C838: x24+x62 <=1 
C839: x24+x63-y24_63 <=1 
C840: x24+x64-y24_64 <=1 
C841: x24+x65 <=1 
C842: x24+x66 <=1 
C843: x25+x27-y25_27 <=1 
C844: x25+x28-y25_28 <=1 
C845: x25+x29 <=1 
C846: x25+x31 <=1 
C847: x25+x32-y25_32 <=1 
C848: x25+x33-y25_33 <=1 
C849: x25+x34-y25_34 <=1 
C850: x25+x35 <=1 
C851: x25+x37-y25_37 <=1 
C852: x25+x38-y25_38 <=1 
C853: x25+x39-y25_39 <=1 
C854: x25+x41-y25_41 <=1 
C855: x25+x43 <=1 
C856: x25+x44 <=1 
C857: x25+x46-y25_46 <=1 
C858: x25+x47 <=1 
C859: x25+x48 <=1 
C860: x25+x51-y25_51 <=1 
C861: x25+x52 <=1 
C862: x25+x53 <=1 
C863: x25+x55 <=1 
C864: x25+x56 <=1 
C865: x25+x58-y25_58 <=1 
C866: x25+x59-y25_59 <=1 
C867: x25+x60 <=1 
C868: x25+x61 <=1 
C869: x25+x64 <=1 
C870: x25+x66 <=1 
C871: x26+x27 <=1 
C872: x26+x29-y26_29 <=1 
C873: x26+x30-y26_30 <=1 
C874: x26+x31 <=1 
C875: x26+x32 <=1 
C876: x26+x33-y26_33 <=1 
C877: x26+x34-y26_34 <=1 
C878: x26+x35 <=1 
C879: x26+x37 <=1 
C880: x26+x38-y26_38 <=1 
C881: x26+x39-y26_39 <=1 
C882: x26+x40-y26_40 <=1 
C883: x26+x41-y26_41 <=1 
C884: x26+x44 <=1 
C885: x26+x45 <=1 
C886: x26+x47-y26_47 <=1 
C887: x26+x48 <=1 
C888: x26+x49-y26_49 <=1 
C889: x26+x50 <=1 
C890: x26+x54 <=1 
C891: x26+x55 <=1 
C892: x26+x58 <=1 
C893: x26+x61 <=1 
C894: x26+x62 <=1 
C895: x26+x66-y26_66 <=1 
C896: x27+x28-y27_28 <=1 
C897: x27+x30-y27_30 <=1 
C898: x27+x32-y27_32 <=1 
C899: x27+x33 <=1 
C900: x27+x35-y27_35 <=1 
C901: x27+x37-y27_37 <=1 
C902: x27+x39-y27_39 <=1 
C903: x27+x40-y27_40 <=1 
C904: x27+x41 <=1 
C905: x27+x43 <=1 
C906: x27+x44 <=1 
C907: x27+x47-y27_47 <=1 
C908: x27+x48 <=1 
C909: x27+x50 <=1 
C910: x27+x52-y27_52 <=1 
C911: x27+x53-y27_53 <=1 
C912: x27+x54-y27_54 <=1 
C913: x27+x56 <=1 
C914: x27+x58 <=1 
C915: x27+x59-y27_59 <=1 
C916: x27+x62 <=1 
C917: x27+x65-y27_65 <=1 
C918: x27+x66-y27_66 <=1 
C919: x28+x29-y28_29 <=1 
C920: x28+x31 <=1 
C921: x28+x33 <=1 
C922: x28+x34 <=1 
C923: x28+x35 <=1 
C924: x28+x36-y28_36 <=1 
C925: x28+x38-y28_38 <=1 
C926: x28+x39 <=1 
C927: x28+x40-y28_40 <=1 
C928: x28+x44 <=1 
C929: x28+x45-y28_45 <=1 
C930: x28+x47 <=1 
C931: x28+x48-y28_48 <=1 
C932: x28+x50-y28_50 <=1 
C933: x28+x51-y28_51 <=1 
C934: x28+x53-y28_53 <=1 
C935: x28+x55-y28_55 <=1 
C936: x28+x56 <=1 
C937: x28+x57-y28_57 <=1 
C938: x28+x59-y28_59 <=1 
C939: x28+x63-y28_63 <=1 
C940: x28+x64 <=1 
C941: x28+x65-y28_65 <=1 
C942: x28+x66 <=1 
C943: x29+x30 <=1 
C944: x29+x35 <=1 
C945: x29+x36 <=1 
C946: x29+x37-y29_37 <=1 
C947: x29+x43-y29_43 <=1 
C948: x29+x45 <=1 
C949: x29+x47-y29_47 <=1 
C950: x29+x48-y29_48 <=1 
C951: x29+x49-y29_49 <=1 
C952: x29+x50-y29_50 <=1 
C953: x29+x51-y29_51 <=1 
C954: x29+x52-y29_52 <=1 
C955: x29+x53-y29_53 <=1 
C956: x29+x54-y29_54 <=1 
C957: x29+x57 <=1 
C958: x29+x58-y29_58 <=1 
C959: x29+x61-y29_61 <=1 
C960: x29+x62 <=1 
C961: x29+x63-y29_63 <=1 
C962: x29+x64-y29_64 <=1 
C963: x29+x65-y29_65 <=1 
C964: x29+x66 <=1 
C965: x30+x31 <=1 
C966: x30+x32-y30_32 <=1 
C967: x30+x36-y30_36 <=1 
C968: x30+x37 <=1 
C969: x30+x38-y30_38 <=1 
C970: x30+x40 <=1 
C971: x30+x41-y30_41 <=1 
C972: x30+x42-y30_42 <=1 
C973: x30+x44 <=1 
C974: x30+x48-y30_48 <=1 
C975: x30+x49 <=1 
C976: x30+x50 <=1 
C977: x30+x51-y30_51 <=1 
C978: x30+x53 <=1 
C979: x30+x54 <=1 
C980: x30+x55 <=1 
C981: x30+x56 <=1 
C982: x30+x60-y30_60 <=1 
C983: x30+x61-y30_61 <=1 
C984: x30+x62-y30_62 <=1 
C985: x30+x65-y30_65 <=1 
C986: x30+x66-y30_66 <=1 
C987: x31+x32 <=1 
C988: x31+x34 <=1 
C989: x31+x35 <=1 
C990: x31+x36-y31_36 <=1 
C991: x31+x37 <=1 
C992: x31+x40-y31_40 <=1 
C993: x31+x43-y31_43 <=1 
C994: x31+x44 <=1 
C995: x31+x45 <=1 
C996: x31+x46 <=1 
C997: x31+x47-y31_47 <=1 
C998: x31+x48-y31_48 <=1 
C999: x31+x49 <=1 
C1000: x31+x50 <=1 
C1001: x31+x52 <=1 
C1002: x31+x53-y31_53 <=1 
C1003: x31+x54 <=1 
C1004: x31+x57 <=1 
C1005: x31+x58-y31_58 <=1 
C1006: x31+x59-y31_59 <=1 
C1007: x31+x60 <=1 
C1008: x31+x63-y31_63 <=1 
C1009: x31+x65-y31_65 <=1 
C1010: x31+x66 <=1 
C1011: x32+x34 <=1 
C1012: x32+x35 <=1 
C1013: x32+x36-y32_36 <=1 
C1014: x32+x38 <=1 
C1015: x32+x39 <=1 
C1016: x32+x40-y32_40 <=1 
C1017: x32+x41 <=1 
C1018: x32+x44 <=1 
C1019: x32+x46 <=1 
C1020: x32+x47 <=1 
C1021: x32+x49-y32_49 <=1 
C1022: x32+x51-y32_51 <=1 
C1023: x32+x54 <=1 
C1024: x32+x55-y32_55 <=1 
C1025: x32+x56-y32_56 <=1 
C1026: x32+x59 <=1 
C1027: x32+x60 <=1 
C1028: x32+x61 <=1 
C1029: x32+x62 <=1 
C1030: x32+x65 <=1 
C1031: x33+x36 <=1 
C1032: x33+x37-y33_37 <=1 
C1033: x33+x38-y33_38 <=1 
C1034: x33+x39-y33_39 <=1 
C1035: x33+x42 <=1 
C1036: x33+x45-y33_45 <=1 
C1037: x33+x46 <=1 
C1038: x33+x47 <=1 
C1039: x33+x48 <=1 
C1040: x33+x49-y33_49 <=1 
C1041: x33+x50-y33_50 <=1 
C1042: x33+x51-y33_51 <=1 
C1043: x33+x54 <=1 
C1044: x33+x55 <=1 
C1045: x33+x57-y33_57 <=1 
C1046: x33+x59-y33_59 <=1 
C1047: x33+x60 <=1 
C1048: x33+x61 <=1 
C1049: x33+x63-y33_63 <=1 
C1050: x33+x65-y33_65 <=1 
C1051: x34+x35-y34_35 <=1 
C1052: x34+x37-y34_37 <=1 
C1053: x34+x38-y34_38 <=1 
C1054: x34+x39 <=1 
C1055: x34+x41-y34_41 <=1 
C1056: x34+x42-y34_42 <=1 
C1057: x34+x43 <=1 
C1058: x34+x44-y34_44 <=1 
C1059: x34+x45 <=1 
C1060: x34+x46-y34_46 <=1 
C1061: x34+x47-y34_47 <=1 
C1062: x34+x50 <=1 
C1063: x34+x51-y34_51 <=1 
C1064: x34+x53-y34_53 <=1 
C1065: x34+x55 <=1 
C1066: x34+x56 <=1 
C1067: x34+x57 <=1 
C1068: x34+x58-y34_58 <=1 
C1069: x34+x59-y34_59 <=1 
C1070: x34+x61-y34_61 <=1 
C1071: x34+x62-y34_62 <=1 
C1072: x34+x64 <=1 
C1073: x34+x66-y34_66 <=1 
C1074: x35+x36 <=1 
C1075: x35+x38-y35_38 <=1 
C1076: x35+x40 <=1 
C1077: x35+x42 <=1 
C1078: x35+x43 <=1 
C1079: x35+x47 <=1 
C1080: x35+x48 <=1 
C1081: x35+x49 <=1 
C1082: x35+x51 <=1 
C1083: x35+x54-y35_54 <=1 
C1084: x35+x56 <=1 
C1085: x35+x57 <=1 
C1086: x35+x58-y35_58 <=1 
C1087: x35+x59-y35_59 <=1 
C1088: x35+x60-y35_60 <=1 
C1089: x35+x62-y35_62 <=1 
C1090: x35+x63-y35_63 <=1 
C1091: x35+x64-y35_64 <=1 
C1092: x36+x38 <=1 
C1093: x36+x42-y36_42 <=1 
C1094: x36+x45-y36_45 <=1 
C1095: x36+x48-y36_48 <=1 
C1096: x36+x49-y36_49 <=1 
C1097: x36+x51 <=1 
C1098: x36+x52 <=1 
C1099: x36+x53 <=1 
C1100: x36+x56 <=1 
C1101: x36+x58-y36_58 <=1 
C1102: x36+x59-y36_59 <=1 
C1103: x36+x60 <=1 
C1104: x36+x61-y36_61 <=1 
C1105: x36+x64 <=1 
C1106: x36+x65 <=1 
C1107: x36+x66 <=1 
C1108: x37+x38-y37_38 <=1 
C1109: x37+x40 <=1 
C1110: x37+x41 <=1 
C1111: x37+x44-y37_44 <=1 
C1112: x37+x46-y37_46 <=1 
C1113: x37+x47-y37_47 <=1 
C1114: x37+x48 <=1 
C1115: x37+x49-y37_49 <=1 
C1116: x37+x50 <=1 
C1117: x37+x51 <=1 
C1118: x37+x53-y37_53 <=1 
C1119: x37+x54-y37_54 <=1 
C1120: x37+x55 <=1 
C1121: x37+x56 <=1 
C1122: x37+x57-y37_57 <=1 
C1123: x37+x59-y37_59 <=1 
C1124: x37+x60-y37_60 <=1 
C1125: x37+x61 <=1 
C1126: x37+x62-y37_62 <=1 
C1127: x37+x63 <=1 
C1128: x37+x64-y37_64 <=1 
C1129: x37+x65 <=1 
C1130: x38+x40 <=1 
C1131: x38+x41 <=1 
C1132: x38+x42 <=1 
C1133: x38+x43 <=1 
C1134: x38+x44 <=1 
C1135: x38+x49 <=1 
C1136: x38+x51 <=1 
C1137: x38+x52-y38_52 <=1 
C1138: x38+x54-y38_54 <=1 
C1139: x38+x55-y38_55 <=1 
C1140: x38+x56-y38_56 <=1 
C1141: x38+x57 <=1 
C1142: x38+x58-y38_58 <=1 
C1143: x38+x59-y38_59 <=1 
C1144: x38+x60-y38_60 <=1 
C1145: x38+x61 <=1 
C1146: x38+x62-y38_62 <=1 
C1147: x38+x63-y38_63 <=1 
C1148: x38+x66-y38_66 <=1 
C1149: x39+x40-y39_40 <=1 
C1150: x39+x41 <=1 
C1151: x39+x43 <=1 
C1152: x39+x45-y39_45 <=1 
C1153: x39+x47-y39_47 <=1 
C1154: x39+x49-y39_49 <=1 
C1155: x39+x50 <=1 
C1156: x39+x52-y39_52 <=1 
C1157: x39+x53-y39_53 <=1 
C1158: x39+x56 <=1 
C1159: x39+x57 <=1 
C1160: x39+x58 <=1 
C1161: x39+x59 <=1 
C1162: x39+x60 <=1 
C1163: x39+x64 <=1 
C1164: x39+x65 <=1 
C1165: x39+x66 <=1 
C1166: x40+x43 <=1 
C1167: x40+x44-y40_44 <=1 
C1168: x40+x45-y40_45 <=1 
C1169: x40+x46-y40_46 <=1 
C1170: x40+x47 <=1 
C1171: x40+x49-y40_49 <=1 
C1172: x40+x51 <=1 
C1173: x40+x52-y40_52 <=1 
C1174: x40+x54 <=1 
C1175: x40+x58 <=1 
C1176: x40+x59-y40_59 <=1 
C1177: x40+x60 <=1 
C1178: x40+x61 <=1 
C1179: x40+x63-y40_63 <=1 
C1180: x40+x64 <=1 
C1181: x40+x65-y40_65 <=1 
C1182: x40+x66 <=1 
C1183: x41+x42 <=1 
C1184: x41+x44-y41_44 <=1 
C1185: x41+x46 <=1 
C1186: x41+x49 <=1 
C1187: x41+x50-y41_50 <=1 
C1188: x41+x52-y41_52 <=1 
C1189: x41+x56-y41_56 <=1 
C1190: x41+x57 <=1 
C1191: x41+x58-y41_58 <=1 
C1192: x41+x59 <=1 
C1193: x41+x60-y41_60 <=1 
C1194: x41+x61-y41_61 <=1 
C1195: x41+x62 <=1 
C1196: x41+x63 <=1 
C1197: x41+x64 <=1 
C1198: x41+x65-y41_65 <=1 
C1199: x41+x66 <=1 
C1200: x42+x43-y42_43 <=1 
C1201: x42+x45 <=1 
C1202: x42+x48 <=1 
C1203: x42+x50 <=1 
C1204: x42+x51-y42_51 <=1 
C1205: x42+x52-y42_52 <=1 
C1206: x42+x53-y42_53 <=1 
C1207: x42+x55 <=1 
C1208: x42+x56-y42_56 <=1 
C1209: x42+x57-y42_57 <=1 
C1210: x42+x59-y42_59 <=1 
C1211: x42+x62-y42_62 <=1 
C1212: x42+x65-y42_65 <=1 
C1213: x42+x66 <=1 
C1214: x43+x44 <=1 
C1215: x43+x45 <=1 
C1216: x43+x49 <=1 
C1217: x43+x54 <=1 
C1218: x43+x55 <=1 
C1219: x43+x56-y43_56 <=1 
C1220: x43+x57 <=1 
C1221: x43+x58 <=1 
C1222: x43+x59 <=1 
C1223: x43+x64-y43_64 <=1 
C1224: x43+x65 <=1 
C1225: x43+x66-y43_66 <=1 
C1226: x44+x46-y44_46 <=1 
C1227: x44+x47 <=1 
C1228: x44+x51 <=1 
C1229: x44+x55 <=1 
C1230: x44+x57-y44_57 <=1 
C1231: x44+x58-y44_58 <=1 
C1232: x44+x60-y44_60 <=1 
C1233: x44+x62-y44_62 <=1 
C1234: x44+x63 <=1 
C1235: x44+x64 <=1 
C1236: x44+x65 <=1 
C1237: x44+x66-y44_66 <=1 
C1238: x45+x51 <=1 
C1239: x45+x52-y45_52 <=1 
C1240: x45+x53 <=1 
C1241: x45+x55-y45_55 <=1 
C1242: x45+x56 <=1 
C1243: x45+x57-y45_57 <=1 
C1244: x45+x58 <=1 
C1245: x45+x59 <=1 
C1246: x45+x60-y45_60 <=1 
C1247: x45+x61-y45_61 <=1 
C1248: x45+x62-y45_62 <=1 
C1249: x45+x63 <=1 
C1250: x45+x64 <=1 
C1251: x45+x66 <=1 
C1252: x46+x47 <=1 
C1253: x46+x48 <=1 
C1254: x46+x49-y46_49 <=1 
C1255: x46+x53-y46_53 <=1 
C1256: x46+x55-y46_55 <=1 
C1257: x46+x57-y46_57 <=1 
C1258: x46+x59 <=1 
C1259: x46+x62 <=1 
C1260: x46+x63 <=1 
C1261: x46+x64-y46_64 <=1 
C1262: x47+x48-y47_48 <=1 
C1263: x47+x49-y47_49 <=1 
C1264: x47+x51 <=1 
C1265: x47+x52 <=1 
C1266: x47+x54 <=1 
C1267: x47+x56-y47_56 <=1 
C1268: x47+x60 <=1 
C1269: x47+x64-y47_64 <=1 
C1270: x47+x66 <=1 
C1271: x48+x50 <=1 
C1272: x48+x51-y48_51 <=1 
C1273: x48+x52 <=1 
C1274: x48+x53-y48_53 <=1 
C1275: x48+x54 <=1 
C1276: x48+x56 <=1 
C1277: x48+x59 <=1 
C1278: x48+x60 <=1 
C1279: x48+x61 <=1 
C1280: x48+x62-y48_62 <=1 
C1281: x48+x63-y48_63 <=1 
C1282: x48+x64 <=1 
C1283: x48+x65-y48_65 <=1 
C1284: x48+x66 <=1 
C1285: x49+x50 <=1 
C1286: x49+x51 <=1 
C1287: x49+x52-y49_52 <=1 
C1288: x49+x54-y49_54 <=1 
C1289: x49+x58 <=1 
C1290: x49+x60-y49_60 <=1 
C1291: x49+x62 <=1 
C1292: x49+x64-y49_64 <=1 
C1293: x49+x65-y49_65 <=1 
C1294: x50+x52 <=1 
C1295: x50+x53-y50_53 <=1 
C1296: x50+x56 <=1 
C1297: x50+x57-y50_57 <=1 
C1298: x50+x59-y50_59 <=1 
C1299: x50+x60-y50_60 <=1 
C1300: x50+x66 <=1 
C1301: x51+x53-y51_53 <=1 
C1302: x51+x54-y51_54 <=1 
C1303: x51+x55-y51_55 <=1 
C1304: x51+x56 <=1 
C1305: x51+x57 <=1 
C1306: x51+x58-y51_58 <=1 
C1307: x51+x59-y51_59 <=1 
C1308: x51+x62-y51_62 <=1 
C1309: x51+x63 <=1 
C1310: x51+x65 <=1 
C1311: x52+x55-y52_55 <=1 
C1312: x52+x56 <=1 
C1313: x52+x57-y52_57 <=1 
C1314: x52+x60 <=1 
C1315: x52+x61 <=1 
C1316: x52+x63 <=1 
C1317: x52+x64-y52_64 <=1 
C1318: x52+x65-y52_65 <=1 
C1319: x53+x54 <=1 
C1320: x53+x56 <=1 
C1321: x53+x57-y53_57 <=1 
C1322: x53+x59 <=1 
C1323: x53+x64 <=1 
C1324: x53+x65-y53_65 <=1 
C1325: x53+x66 <=1 
C1326: x54+x55 <=1 
C1327: x54+x61-y54_61 <=1 
C1328: x54+x62 <=1 
C1329: x54+x64-y54_64 <=1 
C1330: x55+x58 <=1 
C1331: x55+x59-y55_59 <=1 
C1332: x55+x61 <=1 
C1333: x55+x65-y55_65 <=1 
C1334: x56+x57-y56_57 <=1 
C1335: x56+x58-y56_58 <=1 
C1336: x56+x59 <=1 
C1337: x56+x60 <=1 
C1338: x56+x63 <=1 
C1339: x56+x64 <=1 
C1340: x56+x65-y56_65 <=1 
C1341: x56+x66 <=1 
C1342: x57+x59-y57_59 <=1 
C1343: x57+x60 <=1 
C1344: x57+x61-y57_61 <=1 
C1345: x57+x63 <=1 
C1346: x57+x64-y57_64 <=1 
C1347: x57+x66 <=1 
C1348: x58+x59-y58_59 <=1 
C1349: x58+x60-y58_60 <=1 
C1350: x58+x63-y58_63 <=1 
C1351: x58+x64-y58_64 <=1 
C1352: x58+x65 <=1 
C1353: x59+x60 <=1 
C1354: x59+x62 <=1 
C1355: x59+x64 <=1 
C1356: x59+x65-y59_65 <=1 
C1357: x59+x66-y59_66 <=1 
C1358: x60+x62-y60_62 <=1 
C1359: x60+x63 <=1 
C1360: x60+x64-y60_64 <=1 
C1361: x60+x66 <=1 
C1362: x61+x63 <=1 
C1363: x61+x64-y61_64 <=1 
C1364: x61+x65 <=1 
C1365: x62+x63-y62_63 <=1 
C1366: x62+x64-y62_64 <=1 
C1367: x62+x65 <=1 
C1368: x62+x66-y62_66 <=1 
C1369: x63+x64 <=1 
C1370: x63+x65-y63_65 <=1 
C1371: x63+x66-y63_66 <=1 
C1372: x64+x65 <=1 
C1373: x65+x66-y65_66 <=1 

binary
x0
x1
x2
x3
x4
x5
x6
x7
x8
x9
x10
x11
x12
x13
x14
x15
x16
x17
x18
x19
x20
x21
x22
x23
x24
x25
x26
x27
x28
x29
x30
x31
x32
x33
x34
x35
x36
x37
x38
x39
x40
x41
x42
x43
x44
x45
x46
x47
x48
x49
x50
x51
x52
x53
x54
x55
x56
x57
x58
x59
x60
x61
x62
x63
x64
x65
x66
