problem_generation/data/GISP/train/er_n=67_m=1373_p=0.60_SET2_setparam=100.00_alpha=0.50_504.sol
objective value:                                 1177
x5                                                  1 	(obj:100)
x7                                                  1 	(obj:100)
x10                                                 1 	(obj:100)
x20                                                 1 	(obj:100)
x21                                                 1 	(obj:100)
x30                                                 1 	(obj:100)
x32                                                 1 	(obj:100)
x33                                                 1 	(obj:100)
x51                                                 1 	(obj:100)
x52                                                 1 	(obj:100)
x64                                                 1 	(obj:100)
x66                                                 1 	(obj:100)
y21_32                                              1 	(obj:-1)
y5_64                                               1 	(obj:-1)
y10_30                                              1 	(obj:-1)
y20_52                                              1 	(obj:-1)
y20_33                                              1 	(obj:-1)
y20_51                                              1 	(obj:-1)
y5_7                                                1 	(obj:-1)
y20_32                                              1 	(obj:-1)
y33_51                                              1 	(obj:-1)
y52_64                                              1 	(obj:-1)
y7_52                                               1 	(obj:-1)
y7_20                                               1 	(obj:-1)
y10_66                                              1 	(obj:-1)
y10_52                                              1 	(obj:-1)
y10_33                                              1 	(obj:-1)
y32_51                                              1 	(obj:-1)
y5_51                                               1 	(obj:-1)
y5_10                                               1 	(obj:-1)
y30_66                                              1 	(obj:-1)
y5_32                                               1 	(obj:-1)
y7_64                                               1 	(obj:-1)
y30_51                                              1 	(obj:-1)
y30_32                                              1 	(obj:-1)
